p cnf 93 95
-5 92 0
-5 0 0
-6 92 0
-6 1 0
-7 2 3 0
-8 2 0
-20 10 0
-21 11 0
-22 12 0
-23 13 0
-24 14 0
-25 15 0
-26 16 0
-27 17 0
-28 18 0
-29 2 0
-30 2 0
-31 2 0
-32 2 0
-33 2 0
-34 2 0
-35 2 0
-36 2 0
-37 2 0
-38 2 0
-39 2 0
-40 2 0
-41 2 0
-42 2 0
-43 3 0
-44 3 0
-45 3 0
-46 3 0
-47 3 0
-48 5 0
-49 6 0
-50 7 53 0
-50 7 59 0
-51 4 0
-52 4 0
-53 4 0
-53 22 25 26 27 28 0
-54 4 0
-54 22 25 26 27 28 0
-55 53 0
-56 53 0
-57 53 0
-58 27 28 25 24 0
-59 28 25 0
-60 19 0
-61 7 8 0
-61 7 8 0
-61 -70 0
-62 7 8 0
-62 7 0
-62 -70 0
-63 7 8 0
-63 7 0
-64 7 8 0
-64 7 0
-64 -70 0
-64 92 0
-65 7 0
-66 2 0
-66 7 0
50 -67 4 0
-68 22 0
-69 4 0
-70 7 9 0
-70 -8 0
-71 62 0
-72 63 0
-72 73 0
-73 7 0
-73 2 3 0
-74 8 0
-75 8 0
-76 92 0
-77 92 0
-78 7 4 0
-78 7 -50 0
-78 92 0
-79 7 0
-80 7 0
-81 7 0
-82 7 4 5 6 0
-84 83 0
-85 83 0
-86 83 0
-87 83 0
-88 83 0
-88 8 7 0
-89 4 0
-90 4 0
-91 7 0
